\* Problem: affectations ex 2.4 *\

Maximize
 obj: + 13 xB + 24 xC + 31 xD + 19 xE + 40 xF + 29 xG + 18 xH + 25 xI
 + 30 xJ + 15 xK + 43 xL + 22 xM + 20 xN + 20 xO + 27 xP + 25 xQ + 34 xR
 + 33 xS + 23 xT + 26 xU + 28 xV + 18 xW + 37 xX + 30 xY + 28 xZ + 33 x(
 + 34 x_27 + 17 x) + 38 x_29 + 20 x_ + 19 x` + 36 xa + 25 xb + 27 xc
 + 45 xd + 24 xe

Subject To
 personne1: + xG + xF + xE + xD + xC + xB = 1
 personne2: + xM + xL + xK + xJ + xI + xH = 1
 personne3: + xS + xR + xQ + xP + xO + xN = 1
 personne4: + xY + xX + xW + xV + xU + xT = 1
 personne5: + x_ + x_29 + x) + x_27 + x( + xZ = 1
 personne6: + xe + xd + xc + xb + xa + x` = 1
 machine1: + x` + xZ + xT + xN + xH + xB = 1
 machine2: + xa + x( + xU + xO + xI + xC = 1
 machine3: + xb + x_27 + xV + xP + xJ + xD = 1
 machine4: + xc + x) + xW + xQ + xK + xE = 1
 machine5: + xd + x_29 + xX + xR + xL + xF = 1
 machine6: + xe + x_ + xY + xS + xM + xG = 1

Bounds
 0 <= xB <= 1
 0 <= xC <= 1
 0 <= xD <= 1
 0 <= xE <= 1
 0 <= xF <= 1
 0 <= xG <= 1
 0 <= xH <= 1
 0 <= xI <= 1
 0 <= xJ <= 1
 0 <= xK <= 1
 0 <= xL <= 1
 0 <= xM <= 1
 0 <= xN <= 1
 0 <= xO <= 1
 0 <= xP <= 1
 0 <= xQ <= 1
 0 <= xR <= 1
 0 <= xS <= 1
 0 <= xT <= 1
 0 <= xU <= 1
 0 <= xV <= 1
 0 <= xW <= 1
 0 <= xX <= 1
 0 <= xY <= 1
 0 <= xZ <= 1
 0 <= x( <= 1
 0 <= x_27 <= 1
 0 <= x) <= 1
 0 <= x_29 <= 1
 0 <= x_ <= 1
 0 <= x` <= 1
 0 <= xa <= 1
 0 <= xb <= 1
 0 <= xc <= 1
 0 <= xd <= 1
 0 <= xe <= 1

Generals
 xB
 xC
 xD
 xE
 xF
 xG
 xH
 xI
 xJ
 xK
 xL
 xM
 xN
 xO
 xP
 xQ
 xR
 xS
 xT
 xU
 xV
 xW
 xX
 xY
 xZ
 x(
 x_27
 x)
 x_29
 x_
 x`
 xa
 xb
 xc
 xd
 xe

End
